data;

param N := 5;

# PRZYPADEK 1
# param c (tr):
#         1  2  3  4  5 :=
#     1  0   1   2   1.5 1
#     2  1   0   1.5 1   1.5
#     3  2   1.5 0   1.5 2
#     4  1.5 1   1.5 0   1
#     5  1   1.5 2   1   0;

# PRZYPADEK 2
param c (tr):
        1   2   3   4   5 :=
    1   0   2   1   1   2
    2   2   0   2   1   1
    3   1   2   0   2   1
    4   1   1   2   0   2
    5   2   1   1   2   0;
